33
Coordinates from ORCA-job 13su_ZN_homo_d2.60_cluster2 E -3719.910725169004
  Zn         -0.10048690513048     -0.21256516549644      0.26073255756000
  S          -1.72173611514732     -1.25770737865255     -1.12302900580067
  C          -2.73106071231959      0.01784539755719     -1.96147030733149
  C          -4.10658300132506      0.20674199934432     -1.34630599824639
  S           0.53774784912044     -1.75625567766390      1.91535983056891
  C          -1.04434241637729     -2.10539022846562      2.76052860101373
  C          -1.70436499967982     -3.38678399917854      2.29236800112815
  S          -0.95920434433807      1.68924541414094      1.36840405174785
  C          -1.26202557856353      2.84884597894343     -0.00922503518409
  C          -1.15852700091267      4.29619900377124      0.42423100094167
  S           1.85074072014106      0.29239643876490     -0.98594057010242
  C           3.23408295232619     -0.01022880662946      0.17333440097349
  C           3.71371600088530      1.22281699904631      0.91769899797432
  H          -2.83458201776098     -0.28182069246867     -3.00767159753458
  H          -2.18466073121976      0.96173184947769     -1.95394154847471
  H          -4.66801160720023     -0.73090999660230     -1.35313630960032
  H          -4.68278051583971      0.95483314064258     -1.90136616092684
  H          -4.02412479266310      0.54000376563789     -0.30827279609754
  H          -1.71614449573792     -1.25770584082925      2.60474111112448
  H          -0.84211711709567     -2.16026391220634      3.83351570512861
  H          -1.94103861300653     -3.32927806954989      1.22720794952249
  H          -2.63485654286657     -3.57040971279809      2.84099294931321
  H          -1.04397702746826     -4.24399925277624      2.44671492532361
  H          -2.25475122668122      2.65629214460519     -0.42283821876867
  H          -0.53762742043261      2.64383168351783     -0.80208307555436
  H          -0.15882603405490      4.51849951128483      0.80622442603640
  H          -1.87619147556606      4.51913187855240      1.21835902087092
  H          -1.36155088084795      4.97037510898277     -0.41445926410193
  H           4.05676363782838     -0.43024041318772     -0.41137526149413
  H           2.92322442821710     -0.77741672528554      0.88616100567837
  H           4.55387574065912      0.97692427216407      1.57582487840942
  H           2.91122632023921      1.64162997451317      1.53096897163593
  H           4.04086868389322      1.99823166099450      0.22039720801323
